SDVRP instances/custom_instances/p01_30_split0.vrp
NAME:p01_30_split
BEST_KNOWN: 0
COMMENT: 0
DIMENSION: 231
CAPACITY: 160
EDGE_WEIGHT_FORMAT: FUNCTION
EDGE_WEIGHT_TYPE: EXACT_2D
NODE_COORD_SECTION
1 0.00000 0.00000
2 28 33
3 28 33
4 28 33
5 28 33
6 28 33
7 28 33
8 28 33
9 -3 3
10 -3 3
11 -3 3
12 -3 3
13 -3 3
14 -17 1
15 -17 1
16 -17 1
17 -17 1
18 -17 1
19 -17 1
20 8 45
21 8 45
22 8 45
23 -33 3
24 -33 3
25 -33 3
26 -33 3
27 -33 3
28 -33 3
29 -49 -5
30 -49 -5
31 -49 -5
32 -49 -5
33 19 -22
34 4 29
35 4 29
36 4 29
37 49 -46
38 49 -46
39 49 -46
40 49 -46
41 49 -46
42 49 -46
43 -8 -9
44 -8 -9
45 -8 -9
46 -35 19
47 -35 19
48 -35 19
49 -35 19
50 -35 19
51 45 42
52 45 42
53 45 42
54 45 42
55 45 42
56 45 42
57 13 6
58 13 6
59 13 6
60 13 6
61 13 6
62 39 -27
63 39 -27
64 39 -27
65 39 -27
66 39 -27
67 38 30
68 38 30
69 38 30
70 38 30
71 38 30
72 -26 36
73 -26 36
74 -26 36
75 -26 36
76 -26 36
77 29 31
78 29 31
79 29 31
80 29 31
81 29 31
82 29 31
83 -38 36
84 -38 36
85 -38 36
86 -38 36
87 -38 36
88 2 6
89 2 6
90 2 6
91 2 6
92 2 6
93 2 6
94 -9 49
95 -9 49
96 -9 49
97 -9 49
98 -9 49
99 -9 49
100 -22 34
101 -22 34
102 -22 34
103 -22 34
104 -22 34
105 -22 34
106 -5 -14
107 -5 -14
108 -5 -14
109 -5 -14
110 -5 -14
111 -5 -14
112 43 -50
113 43 -50
114 43 -50
115 43 -50
116 43 -50
117 23 32
118 23 32
119 23 32
120 23 32
121 23 32
122 20 -7
123 20 -7
124 20 -7
125 20 -7
126 -13 32
127 -13 32
128 -13 32
129 -13 32
130 -13 32
131 33 -16
132 33 -16
133 33 -16
134 20 34
135 20 34
136 20 34
137 20 34
138 -35 -44
139 -35 -44
140 -35 -44
141 -35 -44
142 -16 48
143 -16 48
144 -16 48
145 -16 48
146 -16 48
147 -16 48
148 30 -44
149 30 -44
150 30 -44
151 30 -44
152 30 -44
153 34 -34
154 34 -34
155 34 -34
156 42 -13
157 42 -13
158 42 -13
159 42 -13
160 -22 45
161 -22 45
162 -22 45
163 -22 45
164 22 9
165 22 9
166 22 9
167 22 9
168 -2 0
169 -2 0
170 -2 0
171 -2 0
172 -2 0
173 -2 0
174 6 -50
175 6 -50
176 6 -50
177 6 -50
178 6 -50
179 36 30
180 36 30
181 36 30
182 36 30
183 36 30
184 -47 31
185 -47 31
186 -47 31
187 -47 31
188 -47 31
189 -23 -43
190 -23 -43
191 -23 -13
192 -23 -13
193 25 42
194 25 42
195 25 42
196 25 42
197 25 42
198 25 42
199 29 44
200 29 44
201 29 44
202 29 44
203 29 44
204 29 44
205 11 -25
206 11 -25
207 11 -25
208 -1 -36
209 -1 -36
210 6 -2
211 6 -2
212 6 -2
213 -8 13
214 -8 13
215 -8 13
216 -8 13
217 -8 13
218 -28 38
219 -28 38
220 -28 38
221 -28 38
222 30 -40
223 30 -40
224 30 -40
225 30 -40
226 30 -40
227 30 -40
228 36 -35
229 36 -35
230 36 -35
231 36 -35
DEMAND_SECTION
1 0
2 32
3 16
4 8
5 2
6 2
7 2
8 1
9 32
10 32
11 8
12 2
13 1
14 32
15 32
16 8
17 2
18 2
19 2
20 16
21 8
22 2
23 16
24 8
25 2
26 2
27 2
28 1
29 32
30 16
31 2
32 2
33 32
34 16
35 8
36 1
37 16
38 8
39 2
40 2
41 2
42 1
43 16
44 8
45 1
46 32
47 32
48 2
49 2
50 2
51 32
52 16
53 8
54 2
55 2
56 2
57 32
58 32
59 2
60 2
61 2
62 32
63 16
64 8
65 2
66 1
67 32
68 32
69 2
70 2
71 1
72 16
73 8
74 2
75 2
76 2
77 32
78 32
79 8
80 2
81 2
82 2
83 32
84 16
85 2
86 2
87 1
88 32
89 8
90 2
91 2
92 2
93 1
94 32
95 32
96 8
97 2
98 2
99 1
100 16
101 8
102 2
103 2
104 2
105 1
106 32
107 32
108 2
109 2
110 2
111 1
112 32
113 8
114 2
115 2
116 2
117 32
118 8
119 2
120 2
121 2
122 32
123 8
124 2
125 1
126 32
127 32
128 2
129 2
130 2
131 32
132 8
133 1
134 16
135 8
136 2
137 2
138 32
139 16
140 2
141 2
142 32
143 16
144 8
145 2
146 2
147 1
148 32
149 2
150 2
151 2
152 1
153 32
154 16
155 1
156 16
157 2
158 2
159 1
160 32
161 32
162 2
163 1
164 16
165 8
166 2
167 1
168 32
169 32
170 2
171 2
172 2
173 1
174 16
175 8
176 2
177 2
178 1
179 32
180 16
181 8
182 2
183 1
184 16
185 8
186 2
187 2
188 1
189 32
190 32
191 32
192 2
193 32
194 8
195 2
196 2
197 2
198 1
199 32
200 8
201 2
202 2
203 2
204 1
205 16
206 8
207 2
208 32
209 32
210 16
211 2
212 2
213 32
214 16
215 2
216 2
217 2
218 32
219 16
220 8
221 1
222 16
223 8
224 2
225 2
226 2
227 1
228 32
229 16
230 8
231 2
DEPOT_SECTION
1
-1
EOF