SDVRP instances/custom_instances/p01_30_split0.sol
230 -4 5 6 3 1 7 2 77 81 78 80 79 76 -9 8 10 12 11 -16 14 15 17 13 27 26 23 25 22 24 28 31 30 29 -18 46 47 45 49 48 186 184 183 185 187 86 83 84 82 85 -32 130 132 131 158 155 157 156 124 123 122 121 209 211 210 -33 34 134 135 136 133 117 116 120 119 57 56 -35 21 19 20 96 93 97 95 98 94 125 129 127 128 213 -44 43 42 106 105 108 -58 59 60 166 164 163 165 68 70 69 67 66 178 179 180 181 -61 64 62 65 63 227 228 152 153 154 -73 72 75 74 71 220 219 218 217 99 103 104 102 101 100 216 214 215 212 -87 88 90 89 91 92 -109 110 107 188 189 137 138 139 140 190 191 -118 194 195 193 197 196 192 198 203 202 199 201 200 50 54 52 53 51 55 182 -126 143 144 142 146 145 141 160 162 161 159 -167 -169 171 168 170 172 -205 206 204 177 174 175 173 176 208 207 -222 224 225 226 223 221 150 148 147 149 151 115 113 112 114 111 39 40 41 38 37 36 229 230 0 





OBJ=
1585.375
BEST_KNOWN=
0.000